; benchmark generated from python API
(set-info :status unknown)
(declare-fun x_months () Int)
(declare-fun x_beta () Int)
(declare-fun y_months () Int)
(declare-fun y_beta () Int)
(assert
 (<= (- 1202) x_months))
(assert
 (>= 1209 x_months))
(assert
 (>= x_beta 0))
(assert
 (let ((?x4127 (+ x_months 24003)))
 (let ((?x490 (- ?x4127 (* (div (- ?x4127 1) 12) 12))))
 (let ((?x3762 (ite (or (= ?x490 4) (= ?x490 6) (= ?x490 9) (= ?x490 11)) 30 31)))
 (let (($x3307 (and (= (mod (div (- ?x4127 1) 12) 4) 0) (and (distinct (mod (div (- ?x4127 1) 12) 100) 0) true))))
 (let ((?x3476 (ite (or $x3307 (= (mod (div (- ?x4127 1) 12) 400) 0)) 29 28)))
 (< x_beta (ite (= ?x490 2) ?x3476 ?x3762))))))))
(assert
 (<= (- 1202) y_months))
(assert
 (>= 1209 y_months))
(assert
 (>= y_beta 0))
(assert
 (let ((?x3952 (+ y_months 24003)))
 (let ((?x2222 (- ?x3952 (* (div (- ?x3952 1) 12) 12))))
 (let ((?x236 (ite (or (= ?x2222 4) (= ?x2222 6) (= ?x2222 9) (= ?x2222 11)) 30 31)))
 (let (($x260 (and (= (mod (div (- ?x3952 1) 12) 4) 0) (and (distinct (mod (div (- ?x3952 1) 12) 100) 0) true))))
 (let ((?x3189 (ite (or $x260 (= (mod (div (- ?x3952 1) 12) 400) 0)) 29 28)))
 (< y_beta (ite (= ?x2222 2) ?x3189 ?x236))))))))
(assert
 (let (($x3838 (and (= x_months (- (+ (* 2023 12) 6) 24003)) (<= 0 x_beta))))
 (or (> x_months (- (+ (* 2023 12) 6) 24003)) $x3838)))
(assert
 (let ((?x5128 (+ x_beta 1)))
 (let ((?x4306 (+ (+ x_months 1) 24003)))
 (let ((?x4589 (- ?x4306 (* (div (- ?x4306 1) 12) 12))))
 (let ((?x4534 (ite (or (= ?x4589 4) (= ?x4589 6) (= ?x4589 9) (= ?x4589 11)) 30 31)))
 (let (($x1618 (and (= (mod (div (- ?x4306 1) 12) 4) 0) (and (distinct (mod (div (- ?x4306 1) 12) 100) 0) true))))
 (let (($x4010 (or $x1618 (= (mod (div (- ?x4306 1) 12) 400) 0))))
 (let ((?x1483 (ite (= ?x4589 2) (ite $x4010 29 28) ?x4534)))
 (let ((?x972 (ite (> 1 ?x5128) 1 (ite (> ?x5128 ?x1483) ?x1483 ?x5128))))
 (let ((?x3385 (ite (> 1 ?x972) 1 (ite (> ?x972 ?x1483) ?x1483 ?x972))))
 (let ((?x3696 (ite (= 2 ?x4589) (ite $x4010 31 31) (ite (= 1 ?x4589) (ite $x4010 0 0) 0))))
 (let ((?x290 (ite (= 4 ?x4589) (ite $x4010 91 90) (ite (= 3 ?x4589) (ite $x4010 60 59) ?x3696))))
 (let ((?x2081 (ite (= 6 ?x4589) (ite $x4010 152 151) (ite (= 5 ?x4589) (ite $x4010 121 120) ?x290))))
 (let ((?x4027 (ite (= 8 ?x4589) (ite $x4010 213 212) (ite (= 7 ?x4589) (ite $x4010 182 181) ?x2081))))
 (let ((?x4991 (ite (= 10 ?x4589) (ite $x4010 274 273) (ite (= 9 ?x4589) (ite $x4010 244 243) ?x4027))))
 (let ((?x4230 (ite (= 12 ?x4589) (ite $x4010 335 334) (ite (= 11 ?x4589) (ite $x4010 305 304) ?x4991))))
 (let ((?x1239 (+ (* 365 (- (div (- ?x4306 1) 12) 1)) (div (- (div (- ?x4306 1) 12) 1) 4))))
 (let ((?x4363 (+ (- ?x1239 (div (- (div (- ?x4306 1) 12) 1) 100)) (div (- (div (- ?x4306 1) 12) 1) 400))))
 (let ((?x4067 (+ (+ (- (+ (+ ?x4363 ?x4230) (- ?x3385 1)) 730179) 0) 730179)))
 (let ((?x2846 (mod ?x4067 146097)))
 (let ((?x4188 (div ?x2846 36524)))
 (let ((?x4323 (ite (<= 4 ?x4188) 3 ?x4188)))
 (let ((?x4179 (- ?x2846 (* ?x4323 36524))))
 (let ((?x2371 (mod ?x4179 1461)))
 (let ((?x4293 (div ?x2371 365)))
 (let ((?x1762 (ite (<= 4 ?x4293) 3 ?x4293)))
 (let ((?x4299 (+ (+ (* (div ?x4067 146097) 400) (* ?x4323 100)) (* (div ?x4179 1461) 4))))
 (let ((?x1943 (+ (+ ?x4299 ?x1762) 1)))
 (let (($x4314 (or (and (= (mod ?x1943 4) 0) (and (distinct (mod ?x1943 100) 0) true)) (= (mod ?x1943 400) 0))))
 (let ((?x4050 (- ?x2371 (* ?x1762 365))))
 (let ((?x3859 (ite $x4314 31 31)))
 (let (($x3791 (>= ?x4050 ?x3859)))
 (let ((?x2118 (ite $x3791 (+ (- ?x4050 ?x3859) 1) (+ (- ?x4050 (ite $x4314 0 0)) 1))))
 (let ((?x3883 (ite $x4314 60 59)))
 (let (($x2136 (>= ?x4050 ?x3883)))
 (let ((?x2356 (ite $x4314 91 90)))
 (let (($x241 (>= ?x4050 ?x2356)))
 (let ((?x1181 (ite $x241 (+ (- ?x4050 ?x2356) 1) (ite $x2136 (+ (- ?x4050 ?x3883) 1) ?x2118))))
 (let ((?x507 (ite $x4314 121 120)))
 (let (($x1139 (>= ?x4050 ?x507)))
 (let ((?x1081 (ite $x4314 152 151)))
 (let (($x3793 (>= ?x4050 ?x1081)))
 (let ((?x3831 (ite $x3793 (+ (- ?x4050 ?x1081) 1) (ite $x1139 (+ (- ?x4050 ?x507) 1) ?x1181))))
 (let ((?x2790 (ite $x4314 182 181)))
 (let (($x2771 (>= ?x4050 ?x2790)))
 (let ((?x2288 (ite $x4314 213 212)))
 (let (($x1030 (>= ?x4050 ?x2288)))
 (let ((?x1878 (ite $x1030 (+ (- ?x4050 ?x2288) 1) (ite $x2771 (+ (- ?x4050 ?x2790) 1) ?x3831))))
 (let ((?x860 (ite $x4314 244 243)))
 (let (($x4082 (>= ?x4050 ?x860)))
 (let ((?x3660 (ite $x4314 274 273)))
 (let (($x3367 (>= ?x4050 ?x3660)))
 (let ((?x1356 (ite $x3367 (+ (- ?x4050 ?x3660) 1) (ite $x4082 (+ (- ?x4050 ?x860) 1) ?x1878))))
 (let ((?x2099 (ite $x4314 305 304)))
 (let (($x3769 (>= ?x4050 ?x2099)))
 (let ((?x2048 (ite $x4314 335 334)))
 (let (($x1274 (>= ?x4050 ?x2048)))
 (let ((?x3645 (ite $x1274 (+ (- ?x4050 ?x2048) 1) (ite $x3769 (+ (- ?x4050 ?x2099) 1) ?x1356))))
 (let (($x879 (= 0 0)))
 (let ((?x3796 (+ (- (ite $x879 ?x3385 ?x3645) 1) 1)))
 (let ((?x2536 (ite $x1139 5 (ite $x241 4 (ite $x2136 3 (ite $x3791 2 1))))))
 (let ((?x3097 (ite $x4082 9 (ite $x1030 8 (ite $x2771 7 (ite $x3793 6 ?x2536))))))
 (let ((?x3433 (+ (* (ite $x879 (div (- ?x4306 1) 12) ?x1943) 12) (ite $x879 ?x4589 (ite $x1274 12 (ite $x3769 11 (ite $x3367 10 ?x3097)))))))
 (let ((?x4627 (+ (+ (- ?x3433 24003) 0) 24003)))
 (let ((?x1188 (div (- ?x4627 1) 12)))
 (let ((?x1582 (- ?x4627 (* ?x1188 12))))
 (let ((?x3118 (ite (or (= ?x1582 4) (= ?x1582 6) (= ?x1582 9) (= ?x1582 11)) 30 31)))
 (let (($x3321 (or (and (= (mod ?x1188 4) 0) (and (distinct (mod ?x1188 100) 0) true)) (= (mod ?x1188 400) 0))))
 (let ((?x1329 (ite (= ?x1582 2) (ite $x3321 29 28) ?x3118)))
 (let ((?x1820 (ite (> 1 ?x3796) 1 (ite (> ?x3796 ?x1329) ?x1329 ?x3796))))
 (let ((?x2973 (ite (> 1 ?x1820) 1 (ite (> ?x1820 ?x1329) ?x1329 ?x1820))))
 (let ((?x647 (ite (= 2 ?x1582) (ite $x3321 31 31) (ite (= 1 ?x1582) (ite $x3321 0 0) 0))))
 (let ((?x1054 (ite (= 4 ?x1582) (ite $x3321 91 90) (ite (= 3 ?x1582) (ite $x3321 60 59) ?x647))))
 (let ((?x3094 (ite (= 6 ?x1582) (ite $x3321 152 151) (ite (= 5 ?x1582) (ite $x3321 121 120) ?x1054))))
 (let ((?x3380 (ite (= 8 ?x1582) (ite $x3321 213 212) (ite (= 7 ?x1582) (ite $x3321 182 181) ?x3094))))
 (let ((?x3491 (ite (= 10 ?x1582) (ite $x3321 274 273) (ite (= 9 ?x1582) (ite $x3321 244 243) ?x3380))))
 (let ((?x690 (ite (= 12 ?x1582) (ite $x3321 335 334) (ite (= 11 ?x1582) (ite $x3321 305 304) ?x3491))))
 (let ((?x2392 (- (+ (* 365 (- ?x1188 1)) (div (- ?x1188 1) 4)) (div (- ?x1188 1) 100))))
 (let ((?x4412 (- (+ (+ (+ ?x2392 (div (- ?x1188 1) 400)) ?x690) (- ?x2973 1)) 730179)))
 (let ((?x2030 (+ (+ ?x4412 15) 730179)))
 (let ((?x3192 (mod ?x2030 146097)))
 (let ((?x3545 (div ?x3192 36524)))
 (let ((?x3395 (ite (<= 4 ?x3545) 3 ?x3545)))
 (let ((?x1826 (- ?x3192 (* ?x3395 36524))))
 (let ((?x3224 (mod ?x1826 1461)))
 (let ((?x4442 (div ?x3224 365)))
 (let ((?x3857 (ite (<= 4 ?x4442) 3 ?x4442)))
 (let ((?x2634 (+ (+ (* (div ?x2030 146097) 400) (* ?x3395 100)) (* (div ?x1826 1461) 4))))
 (let ((?x2700 (+ (+ ?x2634 ?x3857) 1)))
 (let (($x3764 (or (and (= (mod ?x2700 4) 0) (and (distinct (mod ?x2700 100) 0) true)) (= (mod ?x2700 400) 0))))
 (let ((?x3672 (- ?x3224 (* ?x3857 365))))
 (let ((?x2616 (ite $x3764 31 31)))
 (let (($x1011 (>= ?x3672 ?x2616)))
 (let ((?x2145 (ite $x1011 (+ (- ?x3672 ?x2616) 1) (+ (- ?x3672 (ite $x3764 0 0)) 1))))
 (let ((?x2239 (ite $x3764 60 59)))
 (let (($x2650 (>= ?x3672 ?x2239)))
 (let ((?x1912 (ite $x3764 91 90)))
 (let (($x4444 (>= ?x3672 ?x1912)))
 (let ((?x3389 (ite $x4444 (+ (- ?x3672 ?x1912) 1) (ite $x2650 (+ (- ?x3672 ?x2239) 1) ?x2145))))
 (let ((?x4310 (ite $x3764 121 120)))
 (let (($x2150 (>= ?x3672 ?x4310)))
 (let ((?x5248 (ite $x3764 152 151)))
 (let (($x4665 (>= ?x3672 ?x5248)))
 (let ((?x3494 (ite $x4665 (+ (- ?x3672 ?x5248) 1) (ite $x2150 (+ (- ?x3672 ?x4310) 1) ?x3389))))
 (let ((?x4571 (ite $x3764 182 181)))
 (let (($x2352 (>= ?x3672 ?x4571)))
 (let ((?x2713 (ite $x3764 213 212)))
 (let (($x211 (>= ?x3672 ?x2713)))
 (let ((?x5068 (ite $x211 (+ (- ?x3672 ?x2713) 1) (ite $x2352 (+ (- ?x3672 ?x4571) 1) ?x3494))))
 (let ((?x2329 (ite $x3764 244 243)))
 (let (($x4136 (>= ?x3672 ?x2329)))
 (let ((?x4436 (ite $x3764 274 273)))
 (let (($x3961 (>= ?x3672 ?x4436)))
 (let ((?x4837 (ite $x3961 (+ (- ?x3672 ?x4436) 1) (ite $x4136 (+ (- ?x3672 ?x2329) 1) ?x5068))))
 (let ((?x3848 (ite $x3764 305 304)))
 (let (($x3111 (>= ?x3672 ?x3848)))
 (let ((?x4393 (ite $x3764 335 334)))
 (let (($x5137 (>= ?x3672 ?x4393)))
 (let ((?x4416 (ite $x5137 (+ (- ?x3672 ?x4393) 1) (ite $x3111 (+ (- ?x3672 ?x3848) 1) ?x4837))))
 (let (($x2692 (= 15 0)))
 (let ((?x390 (ite $x2150 5 (ite $x4444 4 (ite $x2650 3 (ite $x1011 2 1))))))
 (let ((?x4381 (ite $x4136 9 (ite $x211 8 (ite $x2352 7 (ite $x4665 6 ?x390))))))
 (let ((?x3935 (ite $x5137 12 (ite $x3111 11 (ite $x3961 10 ?x4381)))))
 (let (($x4289 (= (- (+ (* (ite $x2692 ?x1188 ?x2700) 12) (ite $x2692 ?x1582 ?x3935)) 24003) y_months)))
 (and $x4289 (= (- (ite $x2692 ?x2973 ?x4416) 1) y_beta))))))))))))))))))))))))))))))))))))))))))))))))))))))))))))))))))))))))))))))))))))))))))))))))))))))))))))))))))))))))))))))
(assert
 (let (($x4677 (and (= y_months (- (+ (* 2023 12) 6) 24003)) (<= 0 y_beta))))
(or (> y_months (- (+ (* 2023 12) 6) 24003)) $x4677)))
(check-sat)
